40
    15    21     8    96    50    55    94    15    72    12    94    23    81    26    60    20     4    86    22     7    98    32    86    91    46    59    38    78    60    14    42    80    82    98    41    13    79    63    53    93
     8     5     2     9     9     4     9     1     3     2     2     9     6     9     3     4     2     3     7     6     3     7    10     9    10     8     6     5     2     3     7     8     7     2     2     3     1     2     4     7
     0   740     0     0   571   272     0     0     0     0     0   870   845   765   668   208     0   281   745     0     0     0     0   799   555   537   595   752   572     0    41     0   258    61     0     0   933  1021     0   778
